p cnf 660 1817
c 1    choice(1140,1,chestXray("Oligaemic"))
c 2    birthAsphyxia
c 3    choice(2,0,disease("PFC"))
c 5    choice(36,0,disease("PFC"))
c 8    choice(427,0,lungFlow("Normal"))
c 10   choice(446,0,lungFlow("Normal"))
c 11   choice(2,1,disease("TGA"))
c 12   choice(2,e,null)
c 14   choice(36,1,disease("TGA"))
c 15   choice(36,e,null)
c 19   choice(464,0,lungFlow("Normal"))
c 20   choice(2,2,disease("Fallot"))
c 22   choice(36,2,disease("Fallot"))
c 26   choice(482,0,lungFlow("Normal"))
c 27   choice(2,3,disease("PAIVS"))
c 29   choice(36,3,disease("PAIVS"))
c 33   choice(2,4,disease("TAPVD"))
c 35   choice(36,4,disease("TAPVD"))
c 38   choice(500,0,lungFlow("Normal"))
c 40   choice(518,0,lungFlow("Normal"))
c 41   choice(2,5,disease("Lung"))
c 43   choice(36,5,disease("Lung"))
c 48   choice(282,0,lungParench("Normal"))
c 50   choice(209,0,lungParench("Normal"))
c 52   choice(300,0,lungParench("Normal"))
c 54   choice(228,0,lungParench("Normal"))
c 56   choice(246,0,lungParench("Normal"))
c 58   choice(264,0,lungParench("Normal"))
c 63   choice(427,1,lungFlow("Low"))
c 64   choice(427,e,null)
c 66   choice(446,1,lungFlow("Low"))
c 67   choice(446,e,null)
c 69   choice(464,1,lungFlow("Low"))
c 70   choice(464,e,null)
c 72   choice(482,1,lungFlow("Low"))
c 73   choice(482,e,null)
c 75   choice(500,1,lungFlow("Low"))
c 76   choice(500,e,null)
c 78   choice(518,1,lungFlow("Low"))
c 79   choice(518,e,null)
c 83   choice(1171,1,chestXray("Oligaemic"))
c 85   choice(1201,1,chestXray("Oligaemic"))
c 86   choice(518,2,lungFlow("High"))
c 88   choice(427,2,lungFlow("High"))
c 90   choice(446,2,lungFlow("High"))
c 92   choice(464,2,lungFlow("High"))
c 94   choice(482,2,lungFlow("High"))
c 96   choice(500,2,lungFlow("High"))
c 101  choice(209,1,lungParench("Congested"))
c 102  choice(209,e,null)
c 104  choice(228,1,lungParench("Congested"))
c 105  choice(228,e,null)
c 107  choice(246,1,lungParench("Congested"))
c 108  choice(246,e,null)
c 110  choice(264,1,lungParench("Congested"))
c 111  choice(264,e,null)
c 113  choice(282,1,lungParench("Congested"))
c 114  choice(282,e,null)
c 116  choice(300,1,lungParench("Congested"))
c 117  choice(300,e,null)
c 121  choice(1231,1,chestXray("Oligaemic"))
c 124  choice(1261,1,chestXray("Oligaemic"))
c 126  choice(1291,1,chestXray("Oligaemic"))
c 129  choice(1321,1,chestXray("Oligaemic"))
c 130  choice(209,2,lungParench("Abnormal"))
c 132  choice(228,2,lungParench("Abnormal"))
c 134  choice(246,2,lungParench("Abnormal"))
c 136  choice(264,2,lungParench("Abnormal"))
c 138  choice(282,2,lungParench("Abnormal"))
c 140  choice(300,2,lungParench("Abnormal"))
c 145  choice(1351,1,chestXray("Oligaemic"))
c 148  choice(1381,1,chestXray("Oligaemic"))
c 152  choice(1919,0,xrayReport("Normal"))
c 154  choice(1890,0,xrayReport("Normal"))
c 155  choice(1291,0,chestXray("Normal"))
c 156  choice(1291,e,null)
c 158  choice(1201,0,chestXray("Normal"))
c 159  choice(1201,e,null)
c 161  choice(1321,0,chestXray("Normal"))
c 162  choice(1321,e,null)
c 164  choice(1351,0,chestXray("Normal"))
c 165  choice(1351,e,null)
c 167  choice(1171,0,chestXray("Normal"))
c 168  choice(1171,e,null)
c 170  choice(1381,0,chestXray("Normal"))
c 171  choice(1381,e,null)
c 173  choice(1231,0,chestXray("Normal"))
c 174  choice(1231,e,null)
c 176  choice(1261,0,chestXray("Normal"))
c 177  choice(1261,e,null)
c 179  choice(1140,0,chestXray("Normal"))
c 180  choice(1140,e,null)
c 184  choice(1140,4,chestXray("Asy/Patch"))
c 186  choice(1171,4,chestXray("Asy/Patch"))
c 188  choice(1201,4,chestXray("Asy/Patch"))
c 190  choice(1231,4,chestXray("Asy/Patch"))
c 192  choice(1261,4,chestXray("Asy/Patch"))
c 194  choice(1291,4,chestXray("Asy/Patch"))
c 196  choice(1321,4,chestXray("Asy/Patch"))
c 198  choice(1351,4,chestXray("Asy/Patch"))
c 200  choice(1381,4,chestXray("Asy/Patch"))
c 203  choice(2003,0,xrayReport("Normal"))
c 205  choice(1140,3,chestXray("Grd_Glass"))
c 207  choice(1171,3,chestXray("Grd_Glass"))
c 209  choice(1201,3,chestXray("Grd_Glass"))
c 211  choice(1231,3,chestXray("Grd_Glass"))
c 213  choice(1261,3,chestXray("Grd_Glass"))
c 215  choice(1291,3,chestXray("Grd_Glass"))
c 217  choice(1321,3,chestXray("Grd_Glass"))
c 219  choice(1351,3,chestXray("Grd_Glass"))
c 221  choice(1381,3,chestXray("Grd_Glass"))
c 224  choice(1975,0,xrayReport("Normal"))
c 226  choice(1140,2,chestXray("Plethoric"))
c 228  choice(1171,2,chestXray("Plethoric"))
c 230  choice(1201,2,chestXray("Plethoric"))
c 232  choice(1231,2,chestXray("Plethoric"))
c 234  choice(1261,2,chestXray("Plethoric"))
c 236  choice(1291,2,chestXray("Plethoric"))
c 238  choice(1321,2,chestXray("Plethoric"))
c 240  choice(1351,2,chestXray("Plethoric"))
c 242  choice(1381,2,chestXray("Plethoric"))
c 245  choice(1947,0,xrayReport("Normal"))
c 248  choice(1947,1,xrayReport("Oligaemic"))
c 249  choice(1947,e,null)
c 251  choice(1919,1,xrayReport("Oligaemic"))
c 252  choice(1919,e,null)
c 254  choice(1890,1,xrayReport("Oligaemic"))
c 255  choice(1890,e,null)
c 257  choice(2003,1,xrayReport("Oligaemic"))
c 258  choice(2003,e,null)
c 260  choice(1975,1,xrayReport("Oligaemic"))
c 261  choice(1975,e,null)
c 264  choice(1975,2,xrayReport("Plethoric"))
c 266  choice(1947,2,xrayReport("Plethoric"))
c 268  choice(1919,2,xrayReport("Plethoric"))
c 270  choice(1890,2,xrayReport("Plethoric"))
c 272  choice(2003,2,xrayReport("Plethoric"))
c 275  choice(1890,3,xrayReport("Grd_Glass"))
c 277  choice(2003,3,xrayReport("Grd_Glass"))
c 279  choice(1975,3,xrayReport("Grd_Glass"))
c 281  choice(1947,3,xrayReport("Grd_Glass"))
c 283  choice(1919,3,xrayReport("Grd_Glass"))
c 286  choice(1890,4,xrayReport("Asy/Patchy"))
c 288  choice(2003,4,xrayReport("Asy/Patchy"))
c 290  choice(1975,4,xrayReport("Asy/Patchy"))
c 292  choice(1947,4,xrayReport("Asy/Patchy"))
c 294  choice(1919,4,xrayReport("Asy/Patchy"))
c 297  choice(70,1,cardiacMixing("Mild"))
c 299  choice(94,1,cardiacMixing("Mild"))
c 301  choice(117,1,cardiacMixing("Mild"))
c 303  choice(140,1,cardiacMixing("Mild"))
c 305  choice(163,1,cardiacMixing("Mild"))
c 307  choice(186,1,cardiacMixing("Mild"))
c 310  choice(337,1,ductFlow("None"))
c 312  choice(355,1,ductFlow("None"))
c 314  choice(373,1,ductFlow("None"))
c 316  choice(391,1,ductFlow("None"))
c 318  choice(409,1,ductFlow("None"))
c 320  choice(318,1,ductFlow("None"))
c 324  choice(1606,1,hypDistrib("Unequal"))
c 326  choice(1621,1,hypDistrib("Unequal"))
c 327  choice(117,2,cardiacMixing("Complete"))
c 328  choice(117,e,null)
c 330  choice(140,2,cardiacMixing("Complete"))
c 331  choice(140,e,null)
c 333  choice(163,2,cardiacMixing("Complete"))
c 334  choice(163,e,null)
c 336  choice(186,2,cardiacMixing("Complete"))
c 337  choice(186,e,null)
c 339  choice(70,2,cardiacMixing("Complete"))
c 340  choice(70,e,null)
c 342  choice(94,2,cardiacMixing("Complete"))
c 343  choice(94,e,null)
c 348  choice(70,3,cardiacMixing("Transp."))
c 350  choice(94,3,cardiacMixing("Transp."))
c 352  choice(117,3,cardiacMixing("Transp."))
c 354  choice(140,3,cardiacMixing("Transp."))
c 356  choice(163,3,cardiacMixing("Transp."))
c 358  choice(186,3,cardiacMixing("Transp."))
c 362  choice(1636,1,hypDistrib("Unequal"))
c 364  choice(186,0,cardiacMixing("None"))
c 366  choice(70,0,cardiacMixing("None"))
c 368  choice(94,0,cardiacMixing("None"))
c 370  choice(117,0,cardiacMixing("None"))
c 372  choice(140,0,cardiacMixing("None"))
c 374  choice(163,0,cardiacMixing("None"))
c 377  choice(355,2,ductFlow("Rt_to_Lt"))
c 378  choice(355,e,null)
c 380  choice(373,2,ductFlow("Rt_to_Lt"))
c 381  choice(373,e,null)
c 383  choice(391,2,ductFlow("Rt_to_Lt"))
c 384  choice(391,e,null)
c 386  choice(409,2,ductFlow("Rt_to_Lt"))
c 387  choice(409,e,null)
c 389  choice(318,2,ductFlow("Rt_to_Lt"))
c 390  choice(318,e,null)
c 392  choice(337,2,ductFlow("Rt_to_Lt"))
c 393  choice(337,e,null)
c 397  choice(1651,1,hypDistrib("Unequal"))
c 399  choice(1666,1,hypDistrib("Unequal"))
c 402  choice(1681,1,hypDistrib("Unequal"))
c 405  choice(1530,1,hypDistrib("Unequal"))
c 406  choice(318,0,ductFlow("Lt_to_Rt"))
c 408  choice(337,0,ductFlow("Lt_to_Rt"))
c 410  choice(355,0,ductFlow("Lt_to_Rt"))
c 412  choice(373,0,ductFlow("Lt_to_Rt"))
c 414  choice(391,0,ductFlow("Lt_to_Rt"))
c 416  choice(409,0,ductFlow("Lt_to_Rt"))
c 421  choice(1696,1,hypDistrib("Unequal"))
c 425  choice(1546,1,hypDistrib("Unequal"))
c 428  choice(1561,1,hypDistrib("Unequal"))
c 431  choice(1576,1,hypDistrib("Unequal"))
c 433  choice(1591,1,hypDistrib("Unequal"))
c 438  choice(795,2,hypoxiaInO2("Severe"))
c 441  choice(815,2,hypoxiaInO2("Severe"))
c 443  choice(835,2,hypoxiaInO2("Severe"))
c 446  choice(855,2,hypoxiaInO2("Severe"))
c 450  choice(634,2,hypoxiaInO2("Severe"))
c 453  choice(655,2,hypoxiaInO2("Severe"))
c 455  choice(675,2,hypoxiaInO2("Severe"))
c 458  choice(695,2,hypoxiaInO2("Severe"))
c 462  choice(715,2,hypoxiaInO2("Severe"))
c 464  choice(735,2,hypoxiaInO2("Severe"))
c 467  choice(755,2,hypoxiaInO2("Severe"))
c 471  choice(775,2,hypoxiaInO2("Severe"))
c 475  choice(1830,0,lowerBodyO2("<5"))
c 477  choice(1750,0,lowerBodyO2("<5"))
c 478  choice(1530,0,hypDistrib("Equal"))
c 479  choice(1530,e,null)
c 481  choice(1651,0,hypDistrib("Equal"))
c 482  choice(1651,e,null)
c 484  choice(1561,0,hypDistrib("Equal"))
c 485  choice(1561,e,null)
c 487  choice(1666,0,hypDistrib("Equal"))
c 488  choice(1666,e,null)
c 490  choice(1681,0,hypDistrib("Equal"))
c 491  choice(1681,e,null)
c 493  choice(1591,0,hypDistrib("Equal"))
c 494  choice(1591,e,null)
c 496  choice(1546,0,hypDistrib("Equal"))
c 497  choice(1546,e,null)
c 499  choice(1696,0,hypDistrib("Equal"))
c 500  choice(1696,e,null)
c 502  choice(1606,0,hypDistrib("Equal"))
c 503  choice(1606,e,null)
c 505  choice(1621,0,hypDistrib("Equal"))
c 506  choice(1621,e,null)
c 508  choice(1636,0,hypDistrib("Equal"))
c 509  choice(1636,e,null)
c 511  choice(1576,0,hypDistrib("Equal"))
c 512  choice(1576,e,null)
c 515  choice(835,1,hypoxiaInO2("Moderate"))
c 516  choice(835,e,null)
c 518  choice(634,1,hypoxiaInO2("Moderate"))
c 519  choice(634,e,null)
c 521  choice(855,1,hypoxiaInO2("Moderate"))
c 522  choice(855,e,null)
c 524  choice(655,1,hypoxiaInO2("Moderate"))
c 525  choice(655,e,null)
c 527  choice(675,1,hypoxiaInO2("Moderate"))
c 528  choice(675,e,null)
c 530  choice(695,1,hypoxiaInO2("Moderate"))
c 531  choice(695,e,null)
c 533  choice(715,1,hypoxiaInO2("Moderate"))
c 534  choice(715,e,null)
c 536  choice(735,1,hypoxiaInO2("Moderate"))
c 537  choice(735,e,null)
c 539  choice(755,1,hypoxiaInO2("Moderate"))
c 540  choice(755,e,null)
c 542  choice(775,1,hypoxiaInO2("Moderate"))
c 543  choice(775,e,null)
c 545  choice(795,1,hypoxiaInO2("Moderate"))
c 546  choice(795,e,null)
c 548  choice(815,1,hypoxiaInO2("Moderate"))
c 549  choice(815,e,null)
c 555  choice(1770,0,lowerBodyO2("<5"))
c 557  choice(695,0,hypoxiaInO2("Mild"))
c 559  choice(715,0,hypoxiaInO2("Mild"))
c 561  choice(735,0,hypoxiaInO2("Mild"))
c 563  choice(755,0,hypoxiaInO2("Mild"))
c 565  choice(775,0,hypoxiaInO2("Mild"))
c 567  choice(795,0,hypoxiaInO2("Mild"))
c 569  choice(815,0,hypoxiaInO2("Mild"))
c 571  choice(835,0,hypoxiaInO2("Mild"))
c 573  choice(634,0,hypoxiaInO2("Mild"))
c 575  choice(855,0,hypoxiaInO2("Mild"))
c 577  choice(655,0,hypoxiaInO2("Mild"))
c 579  choice(675,0,hypoxiaInO2("Mild"))
c 583  choice(1790,0,lowerBodyO2("<5"))
c 586  choice(1729,0,lowerBodyO2("<5"))
c 589  choice(1810,0,lowerBodyO2("<5"))
c 592  choice(1810,1,lowerBodyO2("5-12"))
c 593  choice(1810,e,null)
c 595  choice(1830,1,lowerBodyO2("5-12"))
c 596  choice(1830,e,null)
c 598  choice(1750,1,lowerBodyO2("5-12"))
c 599  choice(1750,e,null)
c 601  choice(1770,1,lowerBodyO2("5-12"))
c 602  choice(1770,e,null)
c 604  choice(1790,1,lowerBodyO2("5-12"))
c 605  choice(1790,e,null)
c 607  choice(1729,1,lowerBodyO2("5-12"))
c 608  choice(1729,e,null)
c 611  choice(1729,2,lowerBodyO2("12+"))
c 613  choice(1810,2,lowerBodyO2("12+"))
c 615  choice(1830,2,lowerBodyO2("12+"))
c 617  choice(1750,2,lowerBodyO2("12+"))
c 619  choice(1770,2,lowerBodyO2("12+"))
c 621  choice(1790,2,lowerBodyO2("12+"))
c 624  choice(1711,0,gruntingReport)
c 625  choice(585,0,sick)
c 627  choice(594,0,sick)
c 629  choice(602,0,sick)
c 631  choice(610,0,sick)
c 633  choice(618,0,sick)
c 635  choice(626,0,sick)
c 639  choice(1477,0,grunting)
c 642  choice(1488,0,grunting)
c 645  choice(1498,0,grunting)
c 648  choice(1509,0,grunting)
c 651  choice(1519,0,grunting)
c 654  choice(1466,0,grunting)
c 658  choice(1720,0,gruntingReport)
c 247  xrayReport("Normal")
c 263  xrayReport("Oligaemic")
c 274  xrayReport("Plethoric")
c 285  xrayReport("Grd_Glass")
c 296  xrayReport("Asy/Patchy")
c 591  lowerBodyO2("<5")
c 610  lowerBodyO2("5-12")
c 623  lowerBodyO2("12+")
c 660  gruntingReport
4 -2 -3 0
-4 2 0
-4 3 0
6 -5 2 0
-6 5 0
-6 -2 0
-7 4 6 0
7 -4 0
7 -6 0
9 -8 -7 0
-9 8 0
-9 7 0
13 -2 -11 0
-13 2 0
-13 11 0
16 -14 2 0
-16 14 0
-16 -2 0
-17 16 13 0
17 -16 0
17 -13 0
18 -17 -10 0
-18 17 0
-18 10 0
21 -2 -20 0
-21 2 0
-21 20 0
23 -22 2 0
-23 22 0
-23 -2 0
-24 21 23 0
24 -21 0
24 -23 0
25 -24 -19 0
-25 24 0
-25 19 0
28 -2 -27 0
-28 2 0
-28 27 0
30 -29 2 0
-30 29 0
-30 -2 0
-31 28 30 0
31 -28 0
31 -30 0
32 -26 -31 0
-32 26 0
-32 31 0
34 -33 -2 0
-34 33 0
-34 2 0
36 -35 2 0
-36 35 0
-36 -2 0
-37 34 36 0
37 -34 0
37 -36 0
39 -37 -38 0
-39 37 0
-39 38 0
42 -41 -2 0
-42 41 0
-42 2 0
44 -43 2 0
-44 43 0
-44 -2 0
-45 42 44 0
45 -42 0
45 -44 0
46 -40 -45 0
-46 40 0
-46 45 0
-47 32 39 9 46 18 25 0
47 -32 0
47 -39 0
47 -9 0
47 -46 0
47 -18 0
47 -25 0
49 -48 -37 0
-49 48 0
-49 37 0
51 -50 -7 0
-51 50 0
-51 7 0
53 -52 -45 0
-53 52 0
-53 45 0
55 -17 -54 0
-55 17 0
-55 54 0
57 -24 -56 0
-57 24 0
-57 56 0
59 -58 -31 0
-59 58 0
-59 31 0
-60 49 51 53 55 57 59 0
60 -49 0
60 -51 0
60 -53 0
60 -55 0
60 -57 0
60 -59 0
61 -60 -47 0
-61 60 0
-61 47 0
62 -1 -61 0
-62 1 0
-62 61 0
65 -63 -7 0
-65 63 0
-65 7 0
68 -17 -66 0
-68 17 0
-68 66 0
71 -24 -69 0
-71 24 0
-71 69 0
74 -72 -31 0
-74 72 0
-74 31 0
77 -75 -37 0
-77 75 0
-77 37 0
80 -45 -78 0
-80 45 0
-80 78 0
-81 65 68 71 74 77 80 0
81 -65 0
81 -68 0
81 -71 0
81 -74 0
81 -77 0
81 -80 0
82 -81 -60 0
-82 81 0
-82 60 0
84 -82 -83 0
-84 82 0
-84 83 0
87 -45 -86 0
-87 45 0
-87 86 0
89 -88 -7 0
-89 88 0
-89 7 0
91 -17 -90 0
-91 17 0
-91 90 0
93 -24 -92 0
-93 24 0
-93 92 0
95 -94 -31 0
-95 94 0
-95 31 0
97 -96 -37 0
-97 96 0
-97 37 0
-98 97 87 89 91 93 95 0
98 -97 0
98 -87 0
98 -89 0
98 -91 0
98 -93 0
98 -95 0
99 -98 -60 0
-99 98 0
-99 60 0
100 -99 -85 0
-100 99 0
-100 85 0
103 -101 -7 0
-103 101 0
-103 7 0
106 -104 -17 0
-106 104 0
-106 17 0
109 -24 -107 0
-109 24 0
-109 107 0
112 -110 -31 0
-112 110 0
-112 31 0
115 -113 -37 0
-115 113 0
-115 37 0
118 -116 -45 0
-118 116 0
-118 45 0
-119 103 106 109 112 115 118 0
119 -103 0
119 -106 0
119 -109 0
119 -112 0
119 -115 0
119 -118 0
120 -119 -47 0
-120 119 0
-120 47 0
122 -120 -121 0
-122 120 0
-122 121 0
123 -81 -119 0
-123 81 0
-123 119 0
125 -123 -124 0
-125 123 0
-125 124 0
127 -98 -119 0
-127 98 0
-127 119 0
128 -126 -127 0
-128 126 0
-128 127 0
131 -130 -7 0
-131 130 0
-131 7 0
133 -17 -132 0
-133 17 0
-133 132 0
135 -24 -134 0
-135 24 0
-135 134 0
137 -136 -31 0
-137 136 0
-137 31 0
139 -138 -37 0
-139 138 0
-139 37 0
141 -140 -45 0
-141 140 0
-141 45 0
-142 131 133 135 137 139 141 0
142 -131 0
142 -133 0
142 -135 0
142 -137 0
142 -139 0
142 -141 0
143 -142 -47 0
-143 142 0
-143 47 0
144 -129 -143 0
-144 129 0
-144 143 0
146 -81 -142 0
-146 81 0
-146 142 0
147 -145 -146 0
-147 145 0
-147 146 0
149 -98 -142 0
-149 98 0
-149 142 0
150 -148 -149 0
-150 148 0
-150 149 0
-151 128 100 144 147 84 150 122 125 62 0
151 -128 0
151 -100 0
151 -144 0
151 -147 0
151 -84 0
151 -150 0
151 -122 0
151 -125 0
151 -62 0
153 -152 -151 0
-153 152 0
-153 151 0
157 -155 -127 0
-157 155 0
-157 127 0
160 -99 -158 0
-160 99 0
-160 158 0
163 -161 -143 0
-163 161 0
-163 143 0
166 -146 -164 0
-166 146 0
-166 164 0
169 -82 -167 0
-169 82 0
-169 167 0
172 -170 -149 0
-172 170 0
-172 149 0
175 -120 -173 0
-175 120 0
-175 173 0
178 -176 -123 0
-178 176 0
-178 123 0
181 -179 -61 0
-181 179 0
-181 61 0
-182 160 163 166 169 172 175 178 181 157 0
182 -160 0
182 -163 0
182 -166 0
182 -169 0
182 -172 0
182 -175 0
182 -178 0
182 -181 0
182 -157 0
183 -154 -182 0
-183 154 0
-183 182 0
185 -184 -61 0
-185 184 0
-185 61 0
187 -186 -82 0
-187 186 0
-187 82 0
189 -99 -188 0
-189 99 0
-189 188 0
191 -120 -190 0
-191 120 0
-191 190 0
193 -192 -123 0
-193 192 0
-193 123 0
195 -194 -127 0
-195 194 0
-195 127 0
197 -196 -143 0
-197 196 0
-197 143 0
199 -146 -198 0
-199 146 0
-199 198 0
201 -200 -149 0
-201 200 0
-201 149 0
-202 193 195 197 199 201 185 187 189 191 0
202 -193 0
202 -195 0
202 -197 0
202 -199 0
202 -201 0
202 -185 0
202 -187 0
202 -189 0
202 -191 0
204 -202 -203 0
-204 202 0
-204 203 0
206 -61 -205 0
-206 61 0
-206 205 0
208 -82 -207 0
-208 82 0
-208 207 0
210 -209 -99 0
-210 209 0
-210 99 0
212 -120 -211 0
-212 120 0
-212 211 0
214 -123 -213 0
-214 123 0
-214 213 0
216 -127 -215 0
-216 127 0
-216 215 0
218 -217 -143 0
-218 217 0
-218 143 0
220 -146 -219 0
-220 146 0
-220 219 0
222 -221 -149 0
-222 221 0
-222 149 0
-223 206 208 210 212 214 216 218 220 222 0
223 -206 0
223 -208 0
223 -210 0
223 -212 0
223 -214 0
223 -216 0
223 -218 0
223 -220 0
223 -222 0
225 -224 -223 0
-225 224 0
-225 223 0
227 -226 -61 0
-227 226 0
-227 61 0
229 -82 -228 0
-229 82 0
-229 228 0
231 -99 -230 0
-231 99 0
-231 230 0
233 -120 -232 0
-233 120 0
-233 232 0
235 -234 -123 0
-235 234 0
-235 123 0
237 -236 -127 0
-237 236 0
-237 127 0
239 -238 -143 0
-239 238 0
-239 143 0
241 -240 -146 0
-241 240 0
-241 146 0
243 -242 -149 0
-243 242 0
-243 149 0
-244 227 229 231 233 235 237 239 241 243 0
244 -227 0
244 -229 0
244 -231 0
244 -233 0
244 -235 0
244 -237 0
244 -239 0
244 -241 0
244 -243 0
246 -244 -245 0
-246 244 0
-246 245 0
-247 225 204 246 183 153 0
247 -225 0
247 -204 0
247 -246 0
247 -183 0
247 -153 0
250 -248 -244 0
-250 248 0
-250 244 0
253 -251 -151 0
-253 251 0
-253 151 0
256 -182 -254 0
-256 182 0
-256 254 0
259 -257 -202 0
-259 257 0
-259 202 0
262 -260 -223 0
-262 260 0
-262 223 0
-263 256 259 262 250 253 0
263 -256 0
263 -259 0
263 -262 0
263 -250 0
263 -253 0
265 -264 -223 0
-265 264 0
-265 223 0
267 -266 -244 0
-267 266 0
-267 244 0
269 -268 -151 0
-269 268 0
-269 151 0
271 -182 -270 0
-271 182 0
-271 270 0
273 -272 -202 0
-273 272 0
-273 202 0
-274 265 267 269 271 273 0
274 -265 0
274 -267 0
274 -269 0
274 -271 0
274 -273 0
276 -275 -182 0
-276 275 0
-276 182 0
278 -202 -277 0
-278 202 0
-278 277 0
280 -279 -223 0
-280 279 0
-280 223 0
282 -281 -244 0
-282 281 0
-282 244 0
284 -283 -151 0
-284 283 0
-284 151 0
-285 276 278 280 282 284 0
285 -276 0
285 -278 0
285 -280 0
285 -282 0
285 -284 0
287 -182 -286 0
-287 182 0
-287 286 0
289 -288 -202 0
-289 288 0
-289 202 0
291 -290 -223 0
-291 290 0
-291 223 0
293 -244 -292 0
-293 244 0
-293 292 0
295 -294 -151 0
-295 294 0
-295 151 0
-296 289 291 293 295 287 0
296 -289 0
296 -291 0
296 -293 0
296 -295 0
296 -287 0
298 -297 -7 0
-298 297 0
-298 7 0
300 -17 -299 0
-300 17 0
-300 299 0
302 -24 -301 0
-302 24 0
-302 301 0
304 -303 -31 0
-304 303 0
-304 31 0
306 -305 -37 0
-306 305 0
-306 37 0
308 -307 -45 0
-308 307 0
-308 45 0
-309 298 300 302 304 306 308 0
309 -298 0
309 -300 0
309 -302 0
309 -304 0
309 -306 0
309 -308 0
311 -17 -310 0
-311 17 0
-311 310 0
313 -312 -24 0
-313 312 0
-313 24 0
315 -314 -31 0
-315 314 0
-315 31 0
317 -316 -37 0
-317 316 0
-317 37 0
319 -45 -318 0
-319 45 0
-319 318 0
321 -320 -7 0
-321 320 0
-321 7 0
-322 321 311 313 315 317 319 0
322 -321 0
322 -311 0
322 -313 0
322 -315 0
322 -317 0
322 -319 0
323 -322 -309 0
-323 322 0
-323 309 0
325 -323 -324 0
-325 323 0
-325 324 0
329 -24 -327 0
-329 24 0
-329 327 0
332 -330 -31 0
-332 330 0
-332 31 0
335 -37 -333 0
-335 37 0
-335 333 0
338 -336 -45 0
-338 336 0
-338 45 0
341 -339 -7 0
-341 339 0
-341 7 0
344 -17 -342 0
-344 17 0
-344 342 0
-345 329 332 335 338 341 344 0
345 -329 0
345 -332 0
345 -335 0
345 -338 0
345 -341 0
345 -344 0
346 -345 -322 0
-346 345 0
-346 322 0
347 -346 -326 0
-347 346 0
-347 326 0
349 -348 -7 0
-349 348 0
-349 7 0
351 -17 -350 0
-351 17 0
-351 350 0
353 -352 -24 0
-353 352 0
-353 24 0
355 -354 -31 0
-355 354 0
-355 31 0
357 -356 -37 0
-357 356 0
-357 37 0
359 -45 -358 0
-359 45 0
-359 358 0
-360 353 355 357 359 349 351 0
360 -353 0
360 -355 0
360 -357 0
360 -359 0
360 -349 0
360 -351 0
361 -360 -322 0
-361 360 0
-361 322 0
363 -361 -362 0
-363 361 0
-363 362 0
365 -364 -45 0
-365 364 0
-365 45 0
367 -366 -7 0
-367 366 0
-367 7 0
369 -368 -17 0
-369 368 0
-369 17 0
371 -24 -370 0
-371 24 0
-371 370 0
373 -372 -31 0
-373 372 0
-373 31 0
375 -37 -374 0
-375 37 0
-375 374 0
-376 365 367 369 371 373 375 0
376 -365 0
376 -367 0
376 -369 0
376 -371 0
376 -373 0
376 -375 0
379 -24 -377 0
-379 24 0
-379 377 0
382 -380 -31 0
-382 380 0
-382 31 0
385 -37 -383 0
-385 37 0
-385 383 0
388 -386 -45 0
-388 386 0
-388 45 0
391 -389 -7 0
-391 389 0
-391 7 0
394 -392 -17 0
-394 392 0
-394 17 0
-395 385 388 391 394 379 382 0
395 -385 0
395 -388 0
395 -391 0
395 -394 0
395 -379 0
395 -382 0
396 -376 -395 0
-396 376 0
-396 395 0
398 -396 -397 0
-398 396 0
-398 397 0
400 -395 -309 0
-400 395 0
-400 309 0
401 -400 -399 0
-401 400 0
-401 399 0
403 -345 -395 0
-403 345 0
-403 395 0
404 -402 -403 0
-404 402 0
-404 403 0
407 -406 -7 0
-407 406 0
-407 7 0
409 -408 -17 0
-409 408 0
-409 17 0
411 -24 -410 0
-411 24 0
-411 410 0
413 -412 -31 0
-413 412 0
-413 31 0
415 -37 -414 0
-415 37 0
-415 414 0
417 -416 -45 0
-417 416 0
-417 45 0
-418 417 407 409 411 413 415 0
418 -417 0
418 -407 0
418 -409 0
418 -411 0
418 -413 0
418 -415 0
419 -376 -418 0
-419 376 0
-419 418 0
420 -419 -405 0
-420 419 0
-420 405 0
422 -360 -395 0
-422 360 0
-422 395 0
423 -421 -422 0
-423 421 0
-423 422 0
424 -418 -309 0
-424 418 0
-424 309 0
426 -424 -425 0
-426 424 0
-426 425 0
427 -345 -418 0
-427 345 0
-427 418 0
429 -427 -428 0
-429 427 0
-429 428 0
430 -360 -418 0
-430 360 0
-430 418 0
432 -430 -431 0
-432 430 0
-432 431 0
434 -376 -322 0
-434 376 0
-434 322 0
435 -433 -434 0
-435 433 0
-435 434 0
-436 420 325 423 426 363 429 398 432 401 435 404 347 0
436 -420 0
436 -325 0
436 -423 0
436 -426 0
436 -363 0
436 -429 0
436 -398 0
436 -432 0
436 -401 0
436 -435 0
436 -404 0
436 -347 0
437 -345 -142 0
-437 345 0
-437 142 0
439 -437 -438 0
-439 437 0
-439 438 0
440 -360 -60 0
-440 360 0
-440 60 0
442 -440 -441 0
-442 440 0
-442 441 0
444 -360 -119 0
-444 360 0
-444 119 0
445 -443 -444 0
-445 443 0
-445 444 0
447 -360 -142 0
-447 360 0
-447 142 0
448 -446 -447 0
-448 446 0
-448 447 0
449 -376 -60 0
-449 376 0
-449 60 0
451 -449 -450 0
-451 449 0
-451 450 0
452 -376 -119 0
-452 376 0
-452 119 0
454 -452 -453 0
-454 452 0
-454 453 0
456 -376 -142 0
-456 376 0
-456 142 0
457 -456 -455 0
-457 456 0
-457 455 0
459 -60 -309 0
-459 60 0
-459 309 0
460 -458 -459 0
-460 458 0
-460 459 0
461 -309 -119 0
-461 309 0
-461 119 0
463 -461 -462 0
-463 461 0
-463 462 0
465 -309 -142 0
-465 309 0
-465 142 0
466 -464 -465 0
-466 464 0
-466 465 0
468 -345 -60 0
-468 345 0
-468 60 0
469 -467 -468 0
-469 467 0
-469 468 0
470 -345 -119 0
-470 345 0
-470 119 0
472 -470 -471 0
-472 470 0
-472 471 0
-473 448 451 454 457 460 463 466 469 439 472 442 445 0
473 -448 0
473 -451 0
473 -454 0
473 -457 0
473 -460 0
473 -463 0
473 -466 0
473 -469 0
473 -439 0
473 -472 0
473 -442 0
473 -445 0
474 -473 -436 0
-474 473 0
-474 436 0
476 -474 -475 0
-476 474 0
-476 475 0
480 -419 -478 0
-480 419 0
-480 478 0
483 -481 -396 0
-483 481 0
-483 396 0
486 -427 -484 0
-486 427 0
-486 484 0
489 -400 -487 0
-489 400 0
-489 487 0
492 -490 -403 0
-492 490 0
-492 403 0
495 -434 -493 0
-495 434 0
-495 493 0
498 -424 -496 0
-498 424 0
-498 496 0
501 -499 -422 0
-501 499 0
-501 422 0
504 -323 -502 0
-504 323 0
-504 502 0
507 -505 -346 0
-507 505 0
-507 346 0
510 -361 -508 0
-510 361 0
-510 508 0
513 -430 -511 0
-513 430 0
-513 511 0
-514 480 513 483 486 489 492 495 498 501 504 507 510 0
514 -480 0
514 -513 0
514 -483 0
514 -486 0
514 -489 0
514 -492 0
514 -495 0
514 -498 0
514 -501 0
514 -504 0
514 -507 0
514 -510 0
517 -515 -444 0
-517 515 0
-517 444 0
520 -449 -518 0
-520 449 0
-520 518 0
523 -521 -447 0
-523 521 0
-523 447 0
526 -452 -524 0
-526 452 0
-526 524 0
529 -456 -527 0
-529 456 0
-529 527 0
532 -530 -459 0
-532 530 0
-532 459 0
535 -533 -461 0
-535 533 0
-535 461 0
538 -536 -465 0
-538 536 0
-538 465 0
541 -539 -468 0
-541 539 0
-541 468 0
544 -470 -542 0
-544 470 0
-544 542 0
547 -545 -437 0
-547 545 0
-547 437 0
550 -440 -548 0
-550 440 0
-550 548 0
-551 544 547 517 550 520 523 526 529 532 535 538 541 0
551 -544 0
551 -547 0
551 -517 0
551 -550 0
551 -520 0
551 -523 0
551 -526 0
551 -529 0
551 -532 0
551 -535 0
551 -538 0
551 -541 0
552 -514 -551 0
-552 514 0
-552 551 0
553 -552 -477 0
-553 552 0
-553 477 0
554 -473 -514 0
-554 473 0
-554 514 0
556 -554 -555 0
-556 554 0
-556 555 0
558 -459 -557 0
-558 459 0
-558 557 0
560 -461 -559 0
-560 461 0
-560 559 0
562 -465 -561 0
-562 465 0
-562 561 0
564 -563 -468 0
-564 563 0
-564 468 0
566 -565 -470 0
-566 565 0
-566 470 0
568 -437 -567 0
-568 437 0
-568 567 0
570 -440 -569 0
-570 440 0
-570 569 0
572 -571 -444 0
-572 571 0
-572 444 0
574 -449 -573 0
-574 449 0
-574 573 0
576 -575 -447 0
-576 575 0
-576 447 0
578 -577 -452 0
-578 577 0
-578 452 0
580 -456 -579 0
-580 456 0
-580 579 0
-581 576 578 580 558 560 562 564 566 568 570 572 574 0
581 -576 0
581 -578 0
581 -580 0
581 -558 0
581 -560 0
581 -562 0
581 -564 0
581 -566 0
581 -568 0
581 -570 0
581 -572 0
581 -574 0
582 -436 -581 0
-582 436 0
-582 581 0
584 -582 -583 0
-584 582 0
-584 583 0
585 -514 -581 0
-585 514 0
-585 581 0
587 -585 -586 0
-587 585 0
-587 586 0
588 -436 -551 0
-588 436 0
-588 551 0
590 -588 -589 0
-590 588 0
-590 589 0
-591 584 553 587 556 590 476 0
591 -584 0
591 -553 0
591 -587 0
591 -556 0
591 -590 0
591 -476 0
594 -592 -588 0
-594 592 0
-594 588 0
597 -474 -595 0
-597 474 0
-597 595 0
600 -552 -598 0
-600 552 0
-600 598 0
603 -601 -554 0
-603 601 0
-603 554 0
606 -604 -582 0
-606 604 0
-606 582 0
609 -585 -607 0
-609 585 0
-609 607 0
-610 609 594 597 600 603 606 0
610 -609 0
610 -594 0
610 -597 0
610 -600 0
610 -603 0
610 -606 0
612 -585 -611 0
-612 585 0
-612 611 0
614 -588 -613 0
-614 588 0
-614 613 0
616 -474 -615 0
-616 474 0
-616 615 0
618 -552 -617 0
-618 552 0
-618 617 0
620 -554 -619 0
-620 554 0
-620 619 0
622 -621 -582 0
-622 621 0
-622 582 0
-623 612 614 616 618 620 622 0
623 -612 0
623 -614 0
623 -616 0
623 -618 0
623 -620 0
623 -622 0
626 -625 -7 0
-626 625 0
-626 7 0
628 -17 -627 0
-628 17 0
-628 627 0
630 -24 -629 0
-630 24 0
-630 629 0
632 -631 -31 0
-632 631 0
-632 31 0
634 -633 -37 0
-634 633 0
-634 37 0
636 -635 -45 0
-636 635 0
-636 45 0
-637 626 628 630 632 634 636 0
637 -626 0
637 -628 0
637 -630 0
637 -632 0
637 -634 0
637 -636 0
638 637 -60 0
-638 -637 0
-638 60 0
640 -638 -639 0
-640 638 0
-640 639 0
641 -637 -119 0
-641 637 0
-641 119 0
643 -641 -642 0
-643 641 0
-643 642 0
644 637 -119 0
-644 -637 0
-644 119 0
646 -644 -645 0
-646 644 0
-646 645 0
647 -637 -142 0
-647 637 0
-647 142 0
649 -648 -647 0
-649 648 0
-649 647 0
650 637 -142 0
-650 -637 0
-650 142 0
652 -650 -651 0
-652 650 0
-652 651 0
653 -60 -637 0
-653 60 0
-653 637 0
655 -653 -654 0
-655 653 0
-655 654 0
-656 640 643 646 649 652 655 0
656 -640 0
656 -643 0
656 -646 0
656 -649 0
656 -652 0
656 -655 0
657 -624 -656 0
-657 624 0
-657 656 0
659 656 -658 0
-659 -656 0
-659 658 0
-660 657 659 0
660 -657 0
660 -659 0
-1 -226 0
-1 -205 0
-1 -179 0
-1 -184 0
-1 -180 0
-226 -205 0
-226 -179 0
-226 -184 0
-226 -180 0
-205 -179 0
-205 -184 0
-205 -180 0
-179 -184 0
-179 -180 0
-184 -180 0
1 226 205 179 184 180 0
-33 -3 0
-33 -41 0
-33 -11 0
-33 -20 0
-33 -27 0
-33 -12 0
-3 -41 0
-3 -11 0
-3 -20 0
-3 -27 0
-3 -12 0
-41 -11 0
-41 -20 0
-41 -27 0
-41 -12 0
-11 -20 0
-11 -27 0
-11 -12 0
-20 -27 0
-20 -12 0
-27 -12 0
33 3 41 11 20 27 12 0
-35 -5 0
-35 -43 0
-35 -14 0
-35 -22 0
-35 -29 0
-35 -15 0
-5 -43 0
-5 -14 0
-5 -22 0
-5 -29 0
-5 -15 0
-43 -14 0
-43 -22 0
-43 -29 0
-43 -15 0
-14 -22 0
-14 -29 0
-14 -15 0
-22 -29 0
-22 -15 0
-29 -15 0
35 5 43 14 22 29 15 0
-8 -88 0
-8 -63 0
-8 -64 0
-88 -63 0
-88 -64 0
-63 -64 0
8 88 63 64 0
-10 -90 0
-10 -66 0
-10 -67 0
-90 -66 0
-90 -67 0
-66 -67 0
10 90 66 67 0
-19 -92 0
-19 -69 0
-19 -70 0
-92 -69 0
-92 -70 0
-69 -70 0
19 92 69 70 0
-72 -26 0
-72 -94 0
-72 -73 0
-26 -94 0
-26 -73 0
-94 -73 0
72 26 94 73 0
-96 -75 0
-96 -38 0
-96 -76 0
-75 -38 0
-75 -76 0
-38 -76 0
96 75 38 76 0
-40 -86 0
-40 -78 0
-40 -79 0
-86 -78 0
-86 -79 0
-78 -79 0
40 86 78 79 0
-48 -113 0
-48 -138 0
-48 -114 0
-113 -138 0
-113 -114 0
-138 -114 0
48 113 138 114 0
-50 -101 0
-50 -130 0
-50 -102 0
-101 -130 0
-101 -102 0
-130 -102 0
50 101 130 102 0
-116 -140 0
-116 -52 0
-116 -117 0
-140 -52 0
-140 -117 0
-52 -117 0
116 140 52 117 0
-104 -132 0
-104 -54 0
-104 -105 0
-132 -54 0
-132 -105 0
-54 -105 0
104 132 54 105 0
-56 -107 0
-56 -134 0
-56 -108 0
-107 -134 0
-107 -108 0
-134 -108 0
56 107 134 108 0
-136 -58 0
-136 -110 0
-136 -111 0
-58 -110 0
-58 -111 0
-110 -111 0
136 58 110 111 0
-228 -167 0
-228 -207 0
-228 -83 0
-228 -186 0
-228 -168 0
-167 -207 0
-167 -83 0
-167 -186 0
-167 -168 0
-207 -83 0
-207 -186 0
-207 -168 0
-83 -186 0
-83 -168 0
-186 -168 0
228 167 207 83 186 168 0
-230 -209 0
-230 -85 0
-230 -188 0
-230 -158 0
-230 -159 0
-209 -85 0
-209 -188 0
-209 -158 0
-209 -159 0
-85 -188 0
-85 -158 0
-85 -159 0
-188 -158 0
-188 -159 0
-158 -159 0
230 209 85 188 158 159 0
-232 -173 0
-232 -211 0
-232 -121 0
-232 -190 0
-232 -174 0
-173 -211 0
-173 -121 0
-173 -190 0
-173 -174 0
-211 -121 0
-211 -190 0
-211 -174 0
-121 -190 0
-121 -174 0
-190 -174 0
232 173 211 121 190 174 0
-192 -234 0
-192 -176 0
-192 -213 0
-192 -124 0
-192 -177 0
-234 -176 0
-234 -213 0
-234 -124 0
-234 -177 0
-176 -213 0
-176 -124 0
-176 -177 0
-213 -124 0
-213 -177 0
-124 -177 0
192 234 176 213 124 177 0
-194 -236 0
-194 -215 0
-194 -155 0
-194 -126 0
-194 -156 0
-236 -215 0
-236 -155 0
-236 -126 0
-236 -156 0
-215 -155 0
-215 -126 0
-215 -156 0
-155 -126 0
-155 -156 0
-126 -156 0
194 236 215 155 126 156 0
-129 -161 0
-129 -196 0
-129 -238 0
-129 -217 0
-129 -162 0
-161 -196 0
-161 -238 0
-161 -217 0
-161 -162 0
-196 -238 0
-196 -217 0
-196 -162 0
-238 -217 0
-238 -162 0
-217 -162 0
129 161 196 238 217 162 0
-164 -198 0
-164 -240 0
-164 -145 0
-164 -219 0
-164 -165 0
-198 -240 0
-198 -145 0
-198 -219 0
-198 -165 0
-240 -145 0
-240 -219 0
-240 -165 0
-145 -219 0
-145 -165 0
-219 -165 0
164 198 240 145 219 165 0
-200 -170 0
-200 -242 0
-200 -148 0
-200 -221 0
-200 -171 0
-170 -242 0
-170 -148 0
-170 -221 0
-170 -171 0
-242 -148 0
-242 -221 0
-242 -171 0
-148 -221 0
-148 -171 0
-221 -171 0
200 170 242 148 221 171 0
-294 -268 0
-294 -251 0
-294 -152 0
-294 -283 0
-294 -252 0
-268 -251 0
-268 -152 0
-268 -283 0
-268 -252 0
-251 -152 0
-251 -283 0
-251 -252 0
-152 -283 0
-152 -252 0
-283 -252 0
294 268 251 152 283 252 0
-270 -275 0
-270 -254 0
-270 -154 0
-270 -286 0
-270 -255 0
-275 -254 0
-275 -154 0
-275 -286 0
-275 -255 0
-254 -154 0
-254 -286 0
-254 -255 0
-154 -286 0
-154 -255 0
-286 -255 0
270 275 254 154 286 255 0
-288 -257 0
-288 -203 0
-288 -272 0
-288 -277 0
-288 -258 0
-257 -203 0
-257 -272 0
-257 -277 0
-257 -258 0
-203 -272 0
-203 -277 0
-203 -258 0
-272 -277 0
-272 -258 0
-277 -258 0
288 257 203 272 277 258 0
-224 -290 0
-224 -260 0
-224 -264 0
-224 -279 0
-224 -261 0
-290 -260 0
-290 -264 0
-290 -279 0
-290 -261 0
-260 -264 0
-260 -279 0
-260 -261 0
-264 -279 0
-264 -261 0
-279 -261 0
224 290 260 264 279 261 0
-292 -266 0
-292 -245 0
-292 -248 0
-292 -281 0
-292 -249 0
-266 -245 0
-266 -248 0
-266 -281 0
-266 -249 0
-245 -248 0
-245 -281 0
-245 -249 0
-248 -281 0
-248 -249 0
-281 -249 0
292 266 245 248 281 249 0
-297 -339 0
-297 -348 0
-297 -366 0
-297 -340 0
-339 -348 0
-339 -366 0
-339 -340 0
-348 -366 0
-348 -340 0
-366 -340 0
297 339 348 366 340 0
-368 -350 0
-368 -299 0
-368 -342 0
-368 -343 0
-350 -299 0
-350 -342 0
-350 -343 0
-299 -342 0
-299 -343 0
-342 -343 0
368 350 299 342 343 0
-352 -370 0
-352 -301 0
-352 -327 0
-352 -328 0
-370 -301 0
-370 -327 0
-370 -328 0
-301 -327 0
-301 -328 0
-327 -328 0
352 370 301 327 328 0
-330 -372 0
-330 -354 0
-330 -303 0
-330 -331 0
-372 -354 0
-372 -303 0
-372 -331 0
-354 -303 0
-354 -331 0
-303 -331 0
330 372 354 303 331 0
-305 -356 0
-305 -333 0
-305 -374 0
-305 -334 0
-356 -333 0
-356 -374 0
-356 -334 0
-333 -374 0
-333 -334 0
-374 -334 0
305 356 333 374 334 0
-336 -307 0
-336 -364 0
-336 -358 0
-336 -337 0
-307 -364 0
-307 -358 0
-307 -337 0
-364 -358 0
-364 -337 0
-358 -337 0
336 307 364 358 337 0
-392 -408 0
-392 -310 0
-392 -393 0
-408 -310 0
-408 -393 0
-310 -393 0
392 408 310 393 0
-312 -377 0
-312 -410 0
-312 -378 0
-377 -410 0
-377 -378 0
-410 -378 0
312 377 410 378 0
-412 -314 0
-412 -380 0
-412 -381 0
-314 -380 0
-314 -381 0
-380 -381 0
412 314 380 381 0
-316 -414 0
-316 -383 0
-316 -384 0
-414 -383 0
-414 -384 0
-383 -384 0
316 414 383 384 0
-416 -386 0
-416 -318 0
-416 -387 0
-386 -318 0
-386 -387 0
-318 -387 0
416 386 318 387 0
-320 -389 0
-320 -406 0
-320 -390 0
-389 -406 0
-389 -390 0
-406 -390 0
320 389 406 390 0
-324 -502 0
-324 -503 0
-502 -503 0
324 502 503 0
-505 -326 0
-505 -506 0
-326 -506 0
505 326 506 0
-362 -508 0
-362 -509 0
-508 -509 0
362 508 509 0
-481 -397 0
-481 -482 0
-397 -482 0
481 397 482 0
-487 -399 0
-487 -488 0
-399 -488 0
487 399 488 0
-402 -490 0
-402 -491 0
-490 -491 0
402 490 491 0
-405 -478 0
-405 -479 0
-478 -479 0
405 478 479 0
-499 -421 0
-499 -500 0
-421 -500 0
499 421 500 0
-496 -425 0
-496 -497 0
-425 -497 0
496 425 497 0
-428 -484 0
-428 -485 0
-484 -485 0
428 484 485 0
-511 -431 0
-511 -512 0
-431 -512 0
511 431 512 0
-433 -493 0
-433 -494 0
-493 -494 0
433 493 494 0
-545 -438 0
-545 -567 0
-545 -546 0
-438 -567 0
-438 -546 0
-567 -546 0
545 438 567 546 0
-441 -548 0
-441 -569 0
-441 -549 0
-548 -569 0
-548 -549 0
-569 -549 0
441 548 569 549 0
-515 -571 0
-515 -443 0
-515 -516 0
-571 -443 0
-571 -516 0
-443 -516 0
515 571 443 516 0
-521 -446 0
-521 -575 0
-521 -522 0
-446 -575 0
-446 -522 0
-575 -522 0
521 446 575 522 0
-450 -573 0
-450 -518 0
-450 -519 0
-573 -518 0
-573 -519 0
-518 -519 0
450 573 518 519 0
-577 -524 0
-577 -453 0
-577 -525 0
-524 -453 0
-524 -525 0
-453 -525 0
577 524 453 525 0
-579 -527 0
-579 -455 0
-579 -528 0
-527 -455 0
-527 -528 0
-455 -528 0
579 527 455 528 0
-458 -530 0
-458 -557 0
-458 -531 0
-530 -557 0
-530 -531 0
-557 -531 0
458 530 557 531 0
-533 -462 0
-533 -559 0
-533 -534 0
-462 -559 0
-462 -534 0
-559 -534 0
533 462 559 534 0
-464 -536 0
-464 -561 0
-464 -537 0
-536 -561 0
-536 -537 0
-561 -537 0
464 536 561 537 0
-539 -563 0
-539 -467 0
-539 -540 0
-563 -467 0
-563 -540 0
-467 -540 0
539 563 467 540 0
-565 -542 0
-565 -471 0
-565 -543 0
-542 -471 0
-542 -543 0
-471 -543 0
565 542 471 543 0
-595 -475 0
-595 -615 0
-595 -596 0
-475 -615 0
-475 -596 0
-615 -596 0
595 475 615 596 0
-617 -477 0
-617 -598 0
-617 -599 0
-477 -598 0
-477 -599 0
-598 -599 0
617 477 598 599 0
-619 -601 0
-619 -555 0
-619 -602 0
-601 -555 0
-601 -602 0
-555 -602 0
619 601 555 602 0
-604 -621 0
-604 -583 0
-604 -605 0
-621 -583 0
-621 -605 0
-583 -605 0
604 621 583 605 0
-586 -611 0
-586 -607 0
-586 -608 0
-611 -607 0
-611 -608 0
-607 -608 0
586 611 607 608 0
-592 -613 0
-592 -589 0
-592 -593 0
-613 -589 0
-613 -593 0
-589 -593 0
592 613 589 593 0